(set-logic QF_S)
(declare-fun H () String)
(declare-fun G () String)
(declare-fun E () String)
(declare-fun C () String)
(declare-fun D () String)
(assert (= (str.++  "abaadaadacbc" G "dbeacb" C "aabedeaacaebeaaddcebebceada")  (str.++  "abaadaadacbcecedaccca" D "bebceada") ))
(assert (= (str.++  "ceecbedebbdbdbcccdaddeebcaabbdeaabccdecabdabbeeedcbbaadbaadcbccdedceaedd" "")  (str.++  "ceecbedebbdbdbcccdaddeebcaabbdeaabccdeca" E "beeedcbbaadbaadcbccdedceaedd") ))
(assert (= (str.++  "beedddeebbecaabcdcdaeaededaddcacbb" E "bbbbcbabcdaccdbabdaacdadedeacaadae")  (str.++  "beedddeebbecaabcdcdaeaededaddcacbb" E "bbbbcbabcdaccdbabdaacdadedeacaadae") ))
(assert (= (str.++  "ddaeebdcbdcbccdedeacddaeebccddaad" H "dbaeecacaecabeeebbccbacbcabdaaebbbb")  (str.++  "ddaeebdcbdcbccdedeacddaeebccddaad" H "dbaeecacaecabeeebbccbacbcabdaaebbbb") ))
(assert (= (str.++  "bedabdabdadbbcccaabbdaddeecabcbedeadacbcecbdccdebccaaddaeaaedbebebbceeae" "")  (str.++  "beda" E "dadbbcccaabbdaddeecabcbedeadacbcecbdccdebccaaddaeaaedbebebbceeae") ))
(assert (= (str.++  "cbeebcadecddeacdbbdaceeceedabeddadbbedeabacbadbccecb" H "ddddecadadbbeadc")  (str.++  "cbeebcadecddeacdbbdaceeceedabeddadbbedeabacbadbccecbacbdddddecadadbbeadc" "") ))
(assert (= (str.++  "bbbddadabeacaedaecacdcbeadbeebaadccaeecaad" E "aecdceddedaaeeaedadeabedce")  (str.++  "bbbddadabeacaedaecacdcbeadbeebaadccaeecaadbdabaecdceddedaaeeaedadeabedce" "") ))
(assert (= (str.++  "baabbbcbeaaacaceacecbebbaecacedacecbdccdbebbaabbaebcaccecbecacbdecceedec" "")  (str.++  "baabbbcbeaaacaceacecbebbaecacedacecbdccdbebbaabbaebcaccecbec" H "ecceedec") ))
(assert (= (str.++  "ebceceeceecadeabcbceedecaeccbabceecdbacdcaccacbdbaddb" E "acebdecdacebcad")  (str.++  "ebceceeceecadeabcbceedecaeccbabceecdbacdcacc" H "baddbbdabacebdecdacebcad") ))
(assert (= (str.++  "bedeccadbcabaebebccdbbcccacccededaecadbdcecbcddacceaced" E "eebebeaebbdde")  (str.++  "bedeccadbcabaebebccdbbcccacccededaecadbdcecbcddacceaced" E "eebebeaebbdde") ))
(assert (= (str.++  "adbeeddbcdddcdaabbdabbacdcadbbcebbeeacebcdcbdbbebcededbeaadedcbeddeeaccd" "")  (str.++  "adbeeddbcdddcdaab" E "bacdcadbbcebbeeacebcdcbdbbebcededbeaadedcbeddeeaccd") ))
(assert (= (str.++  "beaeebddccccddacbbbbeeedcbdd" E "addacddecbccecceedaaacccebcbabbebdcdbeed")  (str.++  "beaeebddccccddacbbbbeeedcbdd" E "addacddecbccecceedaaacccebcbabbebdcdbeed") ))
(assert (= (str.++  "edcacddabadcbacdbddebdbbebeaacadecdddebacddcbbebdbaadaadadd" H "eabaaddad")  (str.++  "edcacddabadcbacdbddebdbbebeaacadecdddebacddcbbebdbaadaadadd" H "eabaaddad") ))
(assert (= (str.++  "aebccceadebaccdcbbdbecbdaeccccaebeedabbacaaacccacddadceaeddaedbeebacbdbb" "")  (str.++  "aebccceadebaccdcbbdbecbdaeccccaebeedabbacaaacccacddadceaeddaedbeeb" H "bb") ))
(assert (= (str.++  "aecceddeddebccabdeddcdaebedecacbdbeabbbaaceaccadceecbacdabdeaaadbdcbcdbc" "")  (str.++  "aecceddeddebccabdeddcdaebedec" H "beabbbaaceaccadceecbacdabdeaaadbdcbcdbc") ))
(assert (= (str.++  "eacacddabbbcdedbebdecacbdbadcaaaebeceddbeebddecedcadbcdbcccaebddaaaadbbd" "")  (str.++  "eacacddabbbcdedbebdec" H "badcaaaebeceddbeebddecedcadbcdbcccaebddaaaadbbd") ))
(assert (= (str.++  "edbadceaaeedecdecdcdabbcbdecbddbbacedcd" E "cadbeeadaedeedcbbcdddddacbdea")  (str.++  "edbadceaaeedecdecdcdabbcbdecbddbbacedcd" E "cadbeeadaedeedcbbcdddddacbdea") ))
(assert (= (str.++  "caceaedbedddedcaddddbcdaaacaaddccaeacdeaababc" E "aabccbeedaeaceaeeacbcce")  (str.++  "caceaedbedddedcaddddbcdaaacaaddccaeacdeaababcbdabaabccbeedaeaceaeeacbcce" "") ))
(assert (= (str.++  "cceacdddbb" H "abccdbdcedeeaccaaddcacbebcdebabdaaddeddecedeaacacaeaebcbee")  (str.++  "cceacdddbb" H "abccdbdcedeeaccaaddcacbebcdebabdaaddeddecedeaacacaeaebcbee") ))
(assert (= (str.++  "bcabdde" H "dceddbbeedcecbbbebccabbaceaccbaccaecdccacdaecdaeeeaaaaddedbec")  (str.++  "bcabdde" H "dceddbbeedcecbbbebccabbaceaccbaccaecdccacdaecdaeeeaaaaddedbec") ))
(assert (= (str.++  "becdcb" E "dcdedcaadaccaaacdbbdbeeeabdddedbcadebedadbecebdbabcdbdaeebdceb")  (str.++  "becdcbbdabdcdedcaadaccaaacdbbdbeeeabdddedbcadebedadbecebdbabcdbdaeebdceb" "") ))
(assert (= (str.++  "aeaaaaeecdbabdcb" H "acceadcdeecbcaaabbcddbabbcceabacddbbaaaccecdbeacdded")  (str.++  "aeaaaaeecdbabdcb" H "acceadcdeecbcaaabbcddbabbcceabacddbbaaaccecdbeacdded") ))
(assert (= (str.++  "abcecebdcaeaabbaedadedcccabbaaaeecbdceaebeaceecbdabcaadadabbe" H "babccec")  (str.++  "abcecebdcaeaabbaedadedcccabbaaaeecbdceaebeaceecbdabcaadadabbe" H "babccec") ))
(assert (= (str.++  "bdaebabebadeeec" H "cdbbbaeebceeabaabedeacaceeedbeaabdedaaeececbbecdcddbb")  (str.++  "bdaebabebadeeecacbdcdbbbaeebceeabaabedeacaceeedbeaabdedaaeececbbecdcddbb" "") ))
(assert (= (str.++  "abeeacbcaeeecccbcbbdbabbeecaeaabde" H "cacaecbccabeaedeceacbbcabdcdcdaded")  (str.++  "abeeacbcaeeecccbcbbdbabbeecaeaabdeacbdcacaecbccabeaedeceacbbcabdcdcdaded" "") ))
(assert (= (str.++  "bbdebcbbdecddcabbbaaccaebbecdbaaebdcaabbabecadbdaececabbad" H "bddbceaddd")  (str.++  "bbdebcbbdecddcabbbaaccaebbecdbaaebdcaabbabecadbdaececabbad" H "bddbceaddd") ))
(assert (= (str.++  "bbbdebdeaedbadcecaaccdeecceaecceddbcddcbcdb" E "dbeecedbdccdaecdbbabbdced")  (str.++  "bbbdebdeaedbadcecaaccdeecceaecceddbcddcbcdbbdabdbeecedbdccdaecdbbabbdced" "") ))
(assert (= (str.++  "cbdeacebbeeeeadabcdbccabcbaaaebebbdadbebaeedbadbedccecaacddebbbcb" H "acb")  (str.++  "cbdeacebbeeeeadabcdbccabcbaaaebebbdadbebaeedbadbedccecaacddebbbcb" H "acb") ))
(assert (= (str.++  "ddddeddaecceeaaddcbcedcbadeddbcbaccbabccddececddbcd" H "ebccbdbbbcdaeaeed")  (str.++  "ddddeddaecceeaaddcbcedcbadeddbcbaccbabccddececddbcd" H "ebccbdbbbcdaeaeed") ))
(assert (= (str.++  "edadbabcdaacbdcdedcecbde" E "beaeadceaebbbadcbecaeaadbbacbbabdecdbdceedca")  (str.++  "edadbabcdaacbdcdedcecbde" E "beaeadceaebbbadcbecaeaadbbacbbabdecdbdceedca") ))
(assert (= (str.++  "dccbadebaabdcdebeaaabaedcabbeddabcceebadcaacbdcadbebcccbceddddaeabeeceea" "")  (str.++  "dccbadebaabdcdebeaaabaedcabbeddabcceebadca" H "cadbebcccbceddddaeabeeceea") ))
(assert (= (str.++  "eaeeaeceedaddaebceddbcdabddcd" E "beddceebbabedbdedbcaeacdbaadbdcbacbbace")  (str.++  "eaeeaeceedaddaebceddbcdabddcdbdabbeddceebbabedbdedbcaeacdbaadbdcbacbbace" "") ))
(assert (= (str.++  "daecbdeaadadbacaccdbdebbeeddeeccebededeaeebacdeeccaacebdaaec" H "bbadaccc")  (str.++  "daecbdeaadadbacaccdbdebbeeddeeccebededeaeebacdeeccaacebdaaecacbdbbadaccc" "") ))
(assert (= (str.++  "dcdbcebcbbcbadcaaaadcccaecabcdbbeecbecbdebcedeabccaaedbbcebdd" H "edcddde")  (str.++  "dcdbcebcbbcbadcaaaadcccaecabcdbbeecbecbdebcedeabccaaedbbcebdd" H "edcddde") ))
(assert (= (str.++  "eaeaeabdcdbececceccdbcedecddeac" H "bccccdbaaebeceabdaddecedbeaeacedbcacb")  (str.++  "eaeaeabdcdbececceccdbcedecddeacacbdbccccdbaaebeceabdaddecedbeaeacedbcacb" "") ))
(assert (= (str.++  "bdbbeddabbcbcedbcbaeecbdbeacccbacdcacaabeeacbdbbecedeaaececeacccaddabdce" "")  (str.++  "bdbbeddabbcbcedbcbaeecbdbeacccbacdcacaabee" H "bbecedeaaececeacccaddabdce") ))
(assert (= (str.++  "cebcbaebddacaaddabcbbbaceccdaaddcaaecabcccbcbdbaeceaabdabcbbecbcdabecbbc" "")  (str.++  "cebcbaebddacaaddabcbbbaceccdaaddcaaecabcccbcbdbaeceaa" E "cbbecbcdabecbbc") ))
(assert (= (str.++  "edaadcaebaeeecabcbbadeaecddbeeaececcddcbdccedbdbeeec" H "ddbcbdaeebabcddb")  (str.++  "edaadcaebaeeecabcbbadeaecddbeeaececcddcbdccedbdbeeec" H "ddbcbdaeebabcddb") ))
(assert (= (str.++  "daceabcd" H "ceabccaedbaebdbbeeacddaaedddeeccbcebaeddecaeb" H "dacaacedcbe")  (str.++  "daceabcd" H "ceabccaedbaebdbbeeacddaaedddeeccbcebaeddecaebacbddacaacedcbe") ))
(assert (= (str.++  "adaebbcddeeeaccbaaeeeadaeecaeeedecabbbccedebecaaacebedcccdaebe" E "ababda")  (str.++  "adaebbcddeeeaccbaaeeeadaeecaeeedecabbbccedebecaaacebedcccdaebe" E "ababda") ))
(assert (= (str.++  "bdbadcbcaacbcbbadebeaaedbeceedecceaceeebeacaaededaadcbeeebdeaaca" H "acac")  (str.++  "bdbadcbcaacbcbbadebeaaedbeceedecceaceeebeacaaededaadcbeeebdeaaca" H "acac") ))
(assert (= (str.++  "dedcedeebbaabdcceccbdebbcccdceadbaaaadabeadabbdceabdcabecd" E "dbbbbeccbd")  (str.++  "dedcedeebbaabdcceccbdebbcccdceadbaaaadabeadabbdceabdcabecd" E "dbbbbeccbd") ))
(assert (= (str.++  "dcdaccebaedabadedbabceacaccdebeeccdaeeccdeecedddbabaaaddabcccd" H "bdacea")  (str.++  "dcdaccebaedabadedbabceacaccdebeeccdaeeccdeecedddbabaaaddabcccd" H "bdacea") ))
(assert (= (str.++  "bceceabecaedabebdbaaacebabbeceacebebbccebeaeec" E "bbccecdebdbccdabddbccd")  (str.++  "bceceabecaedabebdbaaacebabbeceacebebbccebeaeecbdabbbccecdebdbccdabddbccd" "") ))
(assert (= (str.++  "bacedcdebabbbeabcaabceaadbbbebdcbacaecdbcbeabbcadbeaa" H "beacbecebdcdcbc")  (str.++  "bacedcdebabbbeabcaabceaadbbbebdcbacaecdbcbeabbcadbeaa" H "beacbecebdcdcbc") ))
(assert (= (str.++  "babbebeaeebcdddaabdddccdcaebecea" H "cbaadbebebaabbbaebeebcaceacbaccacdad")  (str.++  "babbebeaeebcdddaabdddccdcaebecea" H "cbaadbebebaabbbaebeebcaceacbaccacdad") ))
(assert (= (str.++  "adcadbdaadeaaaeddaccbacdadaccacdacbedeedaebcebaeeebaaaddceccdbbbdd" E "ec")  (str.++  "adcadbdaadeaaaeddaccbacdadaccacdacbedeedaebcebaeeebaaaddceccdbbbddbdabec" "") ))
(assert (= (str.++  "dccabcaeaebeeeababecdadabadbecdcecaedcacbcaacdecddddacbddeaaadbdacddbbdb" "")  (str.++  "dccabcaeaebeeeababecdadabadbecdcecaedcacbcaacdecdddd" H "deaaadbdacddbbdb") ))
(assert (= (str.++  "cdbaaaeeeea" H "cbedbceabbaeadccbceabbeeaadbeddbcddcaaaccecceecbadbbadaba")  (str.++  "cdbaaaeeeeaacbdcbedbceabbaeadccbceabbeeaadbeddbcddcaaaccecceecbadbbadaba" "") ))
(assert (= (str.++  "bacbddbcaebdacbeeecbccccdabcebbebacbbeeacceadeeeeabaceabacceaecaadccbded" "")  (str.++  "b" H "dbcaebdacbeeecbccccdabcebbebacbbeeacceadeeeeabaceabacceaecaadccbded") ))
(assert (= (str.++  "bbdadadbbeeebbaeecaaccdddbdaeecdcb" E "aecdaebdeebedacbedeeecdbeeecdcccbc")  (str.++  "bbdadadbbeeebbaeecaaccdddbdaeecdcbbdabaecdaebdeebedacbedeeecdbeeecdcccbc" "") ))
(assert (= (str.++  "dbecce" H "ebacacdddedeebebcadedacdbaccecbeebdddaccceaccbccdabbbbdcedabee")  (str.++  "dbecce" H "ebacacdddedeebebcadedacdbaccecbeebdddaccceaccbccdabbbbdcedabee") ))
(assert (= (str.++  "adacccccacecbadeceebaaddaebbbbecebdedeacdbcbab" H "eaeedbdcdccdeebeaecbcb")  (str.++  "adacccccacecbadeceebaaddaebbbbecebdedeacdbcbabacbdeaeedbdcdccdeebeaecbcb" "") ))
(assert (= (str.++  "deabdadccabddbeeceeedeeaadd" E "cabedacdaacaecb" H "dbbedadeaacbeadbcccaab")  (str.++  "deabdadccabddbeeceeedeeaadd" E "cabedacdaacaecb" H "dbbedadeaacbeadbcccaab") ))
(assert (= (str.++  "aebddccedccddbcbdbbdeabbedaacbeceabded" H "bddcaeebabccbceacdaabbbddbdbdc")  (str.++  "aebddccedccddbcbdbbdeabbedaacbeceabded" H "bddcaeebabccbceacdaabbbddbdbdc") ))
(assert (= (str.++  "e" H "dacedacddacdddeaebaceebadabbdcdcbabdcddadaacdddadadeaacbecdabbdbdbb")  (str.++  "eacbddacedacddacdddeaebaceebadabbdcdcbabdcddadaacdddadadeaacbecdabbdbdbb" "") ))
(assert (= (str.++  "adecbbeeb" H "eeebadbbaeddebedeadabcacddeceadbebaabbeacebedcaedbbedadbeac")  (str.++  "adecbbeebacbdeeebadbbaeddebedeadabcacddeceadbebaabbeacebedcaedbbedadbeac" "") ))
(assert (= (str.++  "a" H "cdaaccaacecddbebaaddcbcecdcbacbacbcccbecbdeaedadeadcdbbdbeadaaddcdd")  (str.++  "a" H "cdaaccaacecddbebaaddcbcecdcbacbacbcccbecbdeaedadeadcdbbdbeadaaddcdd") ))
(assert (= (str.++  "ebdebebdecabdabebc" E "dcdbaaadacabaebedbaebccdee" H "bdadccccaabcbecdeced")  (str.++  "ebdebebdeca" E "ebc" E "dcdbaaadacabaebedbaebccdeeacbdbdadccccaabcbecdeced") ))
(assert (= (str.++  "eedddcacedcdedaecddadbcaedbabaeaaaeeedbbbdeebbdabbaacceeccaceaebeeceeabe" "")  (str.++  "eedddcacedcdedaecddadbcaedbabaeaaaeeedbbbdeeb" E "baacceeccaceaebeeceeabe") ))
(assert (= (str.++  "d" H "ceedbbadacbaaceebceadadadbebeebcbbbbadaadbbebbebccabdcbcaedbcdcbddb")  (str.++  "dacbdceedbbadacbaaceebceadadadbebeebcbbbbadaadbbebbebccabdcbcaedbcdcbddb" "") ))
(assert (= (str.++  "ceecabcedebeaeebeeacadccbdcabdabebcdaaeabdceadeccbcdbccedacbdedaccebdebd" "")  (str.++  "ceecabcedebeaeebeeacadccbdcabdabebcdaaeabdceadeccbcdbcced" H "edaccebdebd") ))
(assert (= (str.++  "edbdcbaebcacaedeecdddbeadbcac" H "bbddbaedadadeeddcacbaebbeaebddabaeaaadc")  (str.++  "edbdcbaebcacaedeecdddbeadbcac" H "bbddbaedadadeeddcacbaebbeaebddabaeaaadc") ))
(assert (= (str.++  "aebebcdabcdaccccbedebebaecbbbabebbaadccdbabdadabbeeabacabab" H "ebabececb")  (str.++  "aebebcdabcdaccccbedebebaecbbbabebbaadccdbabdadabbeeabacabab" H "ebabececb") ))
(assert (= (str.++  "cadebcaacaecdcacdbbabbcebadbeeebadadeaaeccaecbccbaeddbeecdcdcaa" H "dcdee")  (str.++  "cadebcaacaecdcacdbbabbcebadbeeebadadeaaeccaecbccbaeddbeecdcdcaa" H "dcdee") ))
(check-sat)
(get-model)
